==================================================================
A new Round
 
Initial Seed Type:  random
Chosen Solver:  CoM
Number of LookAhead:  1
Flat Terrain, use the default set up of terrain tangent and norm
tilt arond X axis
tilt arond X axis
tilt arond X axis
tilt arond X axis
tilt arond X axis
tilt arond X axis
tilt arond X axis
tilt arond X axis
tilt arond X axis
tilt arond X axis
Flat Terrain, use the default set up of terrain tangent and norm
[[ 1.   0.5  0. ]
 [-1.   0.5  0. ]
 [-1.  -0.5  0. ]
 [ 1.  -0.5  0. ]]
[[ 1.6   0.   -0.05]
 [ 1.    0.   -0.05]
 [ 1.   -0.5   0.05]
 [ 1.6  -0.5   0.05]]
[[ 1.6   0.5   0.05]
 [ 1.    0.5   0.05]
 [ 1.    0.   -0.05]
 [ 1.6   0.   -0.05]]
[[ 2.2   0.    0.05]
 [ 1.6   0.    0.05]
 [ 1.6  -0.5  -0.05]
 [ 2.2  -0.5  -0.05]]
[[ 2.2   0.5  -0.05]
 [ 1.6   0.5  -0.05]
 [ 1.6   0.    0.05]
 [ 2.2   0.    0.05]]
[[ 2.8   0.   -0.05]
 [ 2.2   0.   -0.05]
 [ 2.2  -0.5   0.05]
 [ 2.8  -0.5   0.05]]
[[ 2.8   0.5   0.05]
 [ 2.2   0.5   0.05]
 [ 2.2   0.   -0.05]
 [ 2.8   0.   -0.05]]
[[ 3.4   0.    0.05]
 [ 2.8   0.    0.05]
 [ 2.8  -0.5  -0.05]
 [ 3.4  -0.5  -0.05]]
[[ 3.4   0.5  -0.05]
 [ 2.8   0.5  -0.05]
 [ 2.8   0.    0.05]
 [ 3.4   0.    0.05]]
[[ 4.    0.   -0.05]
 [ 3.4   0.   -0.05]
 [ 3.4  -0.5   0.05]
 [ 4.   -0.5   0.05]]
[[ 4.    0.5   0.05]
 [ 3.4   0.5   0.05]
 [ 3.4   0.   -0.05]
 [ 4.    0.   -0.05]]
[[50.   0.5  0. ]
 [ 4.   0.5  0. ]
 [ 4.  -0.5  0. ]
 [50.  -0.5  0. ]]
No Second Level
The  0 Round:
[[ 1.  -1.  -1.   1. ]
 [ 0.5  0.5 -0.5 -0.5]
 [ 0.   0.   0.   0. ]]

******************************************************************************
This program contains Ipopt, a library for large-scale nonlinear optimization.
 Ipopt is released as open source code under the Eclipse Public License (EPL).
         For more information visit http://projects.coin-or.org/Ipopt
******************************************************************************

This is Ipopt version 3.12.3, running with linear solver mumps.
NOTE: Other linear solvers might be more efficient (see Ipopt documentation).

Number of nonzeros in equality constraint Jacobian...:     3264
Number of nonzeros in inequality constraint Jacobian.:    18317
Number of nonzeros in Lagrangian Hessian.............:     4893

Total number of variables............................:      798
                     variables with only lower bounds:        0
                variables with lower and upper bounds:      798
                     variables with only upper bounds:        0
Total number of equality constraints.................:      484
Total number of inequality constraints...............:     5159
        inequality constraints with only lower bounds:      720
   inequality constraints with lower and upper bounds:        3
        inequality constraints with only upper bounds:     4436

iter    objective    inf_pr   inf_du lg(mu)  ||d||  lg(rg) alpha_du alpha_pr  ls
   0  1.7141023e-01 2.70e-01 1.00e+00  -1.0 0.00e+00    -  0.00e+00 0.00e+00   0
   1  2.0205442e-01 8.56e-03 4.15e+01  -1.0 2.41e+00    -  1.44e-01 1.00e+00f  1
   2  2.0252284e-01 4.75e-04 4.46e+00  -1.0 3.61e-01    -  7.35e-01 1.00e+00f  1
   3  1.9893461e-01 3.02e-03 1.12e+00  -1.0 1.31e+00    -  3.95e-01 1.00e+00f  1
   4  2.0007150e-01 3.22e-03 6.13e-01  -1.0 2.08e+00    -  8.27e-01 1.00e+00f  1
   5  2.3840211e-01 1.15e-01 1.29e+00  -1.0 9.54e+00    -  3.17e-01 1.00e+00f  1
   6  3.3189338e-01 2.00e-01 1.81e-01  -1.0 1.13e+01    -  8.76e-01 1.00e+00f  1
   7  1.1703284e+00 3.93e+00 2.38e+00  -1.0 1.31e+02    -  4.03e-01 1.00e+00f  1
   8  1.3505132e+00 7.97e-01 1.47e+00  -1.0 5.62e+01    -  6.46e-01 1.00e+00f  1
   9  1.4091230e+00 6.55e-02 2.06e-01  -1.0 3.69e+00  -4.0 1.00e+00 1.00e+00h  1
iter    objective    inf_pr   inf_du lg(mu)  ||d||  lg(rg) alpha_du alpha_pr  ls
  10  8.7699919e-01 9.89e-02 3.27e+00  -1.7 1.24e+01  -4.5 9.47e-01 1.00e+00f  1
  11  4.9923297e-01 2.89e-01 4.23e-01  -1.7 1.39e+01  -5.0 1.00e+00 1.00e+00h  1
  12  4.4292530e-01 1.04e-01 3.67e-02  -1.7 2.82e+01    -  1.00e+00 1.00e+00h  1
  13  3.2949521e-01 1.28e-01 6.78e-02  -2.5 2.76e+01    -  1.00e+00 1.00e+00h  1
  14  2.4466025e-01 2.41e-01 1.14e-02  -2.5 5.11e+01    -  1.00e+00 1.00e+00h  1
  15  2.4665259e-01 6.00e-04 2.17e-04  -2.5 3.87e+00    -  1.00e+00 1.00e+00h  1
  16  1.9318932e-01 1.27e-01 1.38e-01  -3.8 4.49e+01    -  7.12e-01 1.00e+00f  1
  17  1.8817858e-01 1.22e-01 2.18e-01  -3.8 4.76e+02    -  1.79e-01 3.34e-02h  1
  18  1.7632264e-01 4.45e-02 1.49e-02  -3.8 4.16e+01    -  1.00e+00 7.12e-01h  1
  19  1.7136919e-01 7.84e-03 2.25e-03  -3.8 2.48e+01    -  1.00e+00 8.46e-01h  1
iter    objective    inf_pr   inf_du lg(mu)  ||d||  lg(rg) alpha_du alpha_pr  ls
  20  1.7076033e-01 7.17e-05 2.32e-05  -3.8 4.77e+00    -  1.00e+00 1.00e+00f  1
  21  1.6741394e-01 7.98e-04 3.61e-03  -5.7 1.31e+01    -  9.57e-01 7.82e-01h  1
  22  1.6667248e-01 1.86e-04 4.61e-04  -5.7 5.32e+00    -  1.00e+00 8.86e-01h  1
  23  1.6657875e-01 5.81e-05 4.66e-06  -5.7 1.86e+00    -  1.00e+00 1.00e+00f  1
  24  1.6653058e-01 7.35e-07 2.88e-06  -8.6 4.51e-01    -  9.98e-01 9.87e-01h  1
  25  1.6652997e-01 3.07e-06 8.67e-10  -8.6 4.98e-02    -  1.00e+00 1.00e+00h  1
  26  1.6652997e-01 7.70e-08 1.36e-13  -8.6 3.24e-02    -  1.00e+00 1.00e+00h  1

Number of Iterations....: 26

                                   (scaled)                 (unscaled)
Objective...............:   1.6652997155428545e-01    1.6652997155428545e-01
Dual infeasibility......:   1.3572173448187154e-13    1.3572173448187154e-13
Constraint violation....:   8.2586039669184161e-09    7.6998974282002836e-08
Complementarity.........:   2.5059511817349087e-09    2.5059511817349087e-09
Overall NLP error.......:   8.2586039669184161e-09    7.6998974282002836e-08


Number of objective function evaluations             = 27
Number of objective gradient evaluations             = 27
Number of equality constraint evaluations            = 27
Number of inequality constraint evaluations          = 27
Number of equality constraint Jacobian evaluations   = 27
Number of inequality constraint Jacobian evaluations = 27
Number of Lagrangian Hessian evaluations             = 26
Total CPU secs in IPOPT (w/o function evaluations)   =      0.679
Total CPU secs in NLP function evaluations           =      0.018

EXIT: Optimal Solution Found.
      solver  :   t_proc      (avg)   t_wall      (avg)    n_eval
       nlp_f  | 303.00us ( 11.22us) 217.41us (  8.05us)        27
       nlp_g  |   5.83ms (215.93us)   4.78ms (177.06us)        27
    nlp_grad  | 431.00us (431.00us) 431.70us (431.70us)         1
  nlp_grad_f  | 548.00us ( 19.57us) 403.72us ( 14.42us)        28
  nlp_hess_l  |   1.63ms ( 62.54us)   1.33ms ( 51.21us)        26
   nlp_jac_g  |  12.00ms (428.46us)   9.20ms (328.72us)        28
       total  | 806.83ms (806.83ms) 556.41ms (556.41ms)         1
Round  0 True
Acceleration:  0.19025332486592308
Momentum:  3.285806346161145e-07
Momentum Rate:  8.576420825830321e-06
Total Program Time:  0.8068
First Level NLP Results:
x_res:  [0.6    0.6    0.6002 0.6005 0.601  0.6018 0.6027 0.6038 0.607  0.6115
 0.6174 0.6248 0.6338 0.6446 0.6577 0.6647 0.672  0.6795 0.6873 0.6954
 0.7036 0.7121]
y_res:  [-2.5999e-20 -5.3013e-20 -1.1017e-03 -3.1641e-03 -6.0460e-03 -9.6063e-03
 -1.3704e-02 -1.8198e-02 -2.9278e-02 -3.5396e-02 -3.7935e-02 -3.7671e-02
 -3.4931e-02 -2.9695e-02 -2.1630e-02 -1.6568e-02 -1.1390e-02 -6.1315e-03
 -8.2613e-04  4.4914e-03  9.7868e-03  1.5025e-02]
z_res:  [0.75   0.75   0.7502 0.7505 0.751  0.7517 0.7525 0.7534 0.7559 0.7579
 0.7598 0.7618 0.764  0.7662 0.7685 0.7694 0.7703 0.7712 0.7722 0.7732
 0.7742 0.7752]
xdot_res:  [6.7091e-19 3.9284e-03 8.0561e-03 1.2383e-02 1.6910e-02 2.1635e-02
 2.6560e-02 3.1685e-02 4.4727e-02 5.8854e-02 7.4066e-02 9.0364e-02
 1.0775e-01 1.3117e-01 1.6320e-01 1.6977e-01 1.7603e-01 1.8198e-01
 1.8762e-01 1.9295e-01 1.9797e-01 2.0269e-01]
ydot_res:  [-2.2462e-20 -2.5707e-02 -4.8122e-02 -6.7244e-02 -8.3073e-02 -9.5610e-02
 -1.0485e-01 -1.1081e-01 -6.1179e-02 -2.5394e-02  2.6474e-03  2.7400e-02
  5.2357e-02  8.0651e-02  1.1811e-01  1.2081e-01  1.2270e-01  1.2379e-01
  1.2408e-01  1.2356e-01  1.2223e-01  1.2011e-01]
zdot_res:  [1.1088e-21 4.1900e-03 8.1444e-03 1.1863e-02 1.5347e-02 1.8594e-02
 2.1606e-02 2.4383e-02 2.0067e-02 1.9376e-02 2.0262e-02 2.1540e-02
 2.2371e-02 2.2521e-02 2.0714e-02 2.1425e-02 2.2072e-02 2.2654e-02
 2.3172e-02 2.3625e-02 2.4014e-02 2.4338e-02]
Lx_res:  [ 6.4099e-23  5.3345e-05  1.0679e-04  1.6043e-04  2.1436e-04  2.6869e-04
  3.2351e-04  3.7892e-04 -2.1972e-04 -5.2714e-04 -6.6751e-04 -7.2809e-04
 -7.7913e-04 -8.9224e-04 -1.1997e-03 -1.1612e-03 -1.1249e-03 -1.0906e-03
 -1.0583e-03 -1.0279e-03 -9.9947e-04 -9.7285e-04]
Ly_res:  [ 2.3912e-21 -3.6361e-06 -7.2788e-06 -1.0935e-05 -1.4611e-05 -1.8314e-05
 -2.2051e-05 -2.5828e-05 -3.4900e-05 -4.4321e-05 -5.4185e-05 -6.4590e-05
 -7.5640e-05 -9.0800e-06  1.9852e-04  1.9379e-04  1.8941e-04  1.8538e-04
  1.8169e-04  1.7833e-04  1.7530e-04  1.7259e-04]
Lz_res:  [-2.3409e-24  5.0562e-09  1.0122e-08  1.5205e-08  2.0317e-08  2.5466e-08
  3.0662e-08  3.5915e-08  4.8528e-08  6.1626e-08  7.5339e-08  8.9806e-08
  1.0517e-07  1.2158e-07  1.3921e-07  1.4703e-07  1.5512e-07  1.6349e-07
  1.7216e-07  1.8114e-07  1.9046e-07  2.0012e-07]
Ldotx_res:  [ 1.2447e-03  1.2470e-03  1.2516e-03  1.2585e-03  1.2676e-03  1.2792e-03
  1.2930e-03 -5.9865e-03 -3.0741e-03 -1.4037e-03 -6.0582e-04 -5.1042e-04
 -1.1311e-03 -3.0747e-03  8.9812e-04  8.4835e-04  8.0014e-04  7.5341e-04
  7.0805e-04  6.6400e-04  6.2116e-04 -5.9008e-17]
Ldoty_res:  [-8.4841e-05 -8.4997e-05 -8.5309e-05 -8.5778e-05 -8.6404e-05 -8.7189e-05
 -8.8134e-05 -9.0721e-05 -9.4208e-05 -9.8638e-05 -1.0405e-04 -1.1050e-04
  6.6560e-04  2.0760e-03 -1.1048e-04 -1.0217e-04 -9.4056e-05 -8.6111e-05
 -7.8324e-05 -7.0681e-05 -6.3167e-05  1.6354e-16]
Ldotz_res:  [1.1798e-07 1.1819e-07 1.1862e-07 1.1927e-07 1.2014e-07 1.2124e-07
 1.2257e-07 1.2613e-07 1.3098e-07 1.3713e-07 1.4466e-07 1.5364e-07
 1.6414e-07 1.7629e-07 1.8238e-07 1.8867e-07 1.9531e-07 2.0230e-07
 2.0966e-07 2.1741e-07 2.2554e-07 1.9753e-16]
px_res:  [0.738]
py_res:  [0.1264]
pz_res:  [-3.5173e-22]
Ts_res:  [0.3 1.  1.3]
FR1x_res:  [4.8712e-01 5.8461e-01 7.0330e-01 8.3823e-01 9.8207e-01 1.1256e+00
 1.2582e+00 6.0038e+00 6.4938e+00 6.9894e+00 7.4547e+00 7.8284e+00
 1.0387e+01 1.4509e+01 1.7470e+00 1.7977e+00 1.8109e+00 1.7843e+00
 1.7200e+00 1.6244e+00 1.5075e+00 2.6161e-15]
FR1y_res:  [-3.4879e+00 -3.3638e+00 -3.2132e+00 -2.9906e+00 -2.6545e+00 -2.1747e+00
 -1.5450e+00  2.2733e+01  1.6908e+01  1.3748e+01  1.2513e+01  1.2750e+01
  1.4528e+01  1.9311e+01  5.6475e-01  4.2689e-01  2.5302e-01  4.6257e-02
 -1.8554e-01 -4.3008e-01 -6.7210e-01  2.7857e-15]
FR1z_res:  [ 86.6311  90.1698  94.2608  98.687  103.2004 107.5107 111.2798 400.
 400.     400.     399.9999 399.9999 400.     400.     118.5123 122.0903
 125.0209 127.1236 128.2391 128.2537 127.1168 337.9898]
The  1 Round:
PL init:  0.737994437897077 0.12639367238528212 -3.51731192935557e-22
PR init:  0.6 -0.1 0
[[ 1.6   1.    1.    1.6 ]
 [ 0.    0.   -0.5  -0.5 ]
 [-0.05 -0.05  0.05  0.05]]
This is Ipopt version 3.12.3, running with linear solver mumps.
NOTE: Other linear solvers might be more efficient (see Ipopt documentation).

Number of nonzeros in equality constraint Jacobian...:     3264
Number of nonzeros in inequality constraint Jacobian.:    18317
Number of nonzeros in Lagrangian Hessian.............:     4893

Total number of variables............................:      798
                     variables with only lower bounds:        0
                variables with lower and upper bounds:      798
                     variables with only upper bounds:        0
Total number of equality constraints.................:      484
Total number of inequality constraints...............:     5159
        inequality constraints with only lower bounds:      720
   inequality constraints with lower and upper bounds:        3
        inequality constraints with only upper bounds:     4436

iter    objective    inf_pr   inf_du lg(mu)  ||d||  lg(rg) alpha_du alpha_pr  ls
   0  7.5482700e-02 7.63e+01 1.00e+00  -1.0 0.00e+00    -  0.00e+00 0.00e+00   0
   1  7.5629806e-02 7.60e+01 2.90e+00  -1.0 3.69e+01    -  1.27e-02 3.68e-03h  1
   2  1.0102719e-01 7.32e+01 7.75e+01  -1.0 6.32e+01    -  1.09e-01 3.64e-02h  1
   3  1.0634999e-01 7.29e+01 1.26e+02  -1.0 6.88e+01    -  4.55e-02 3.84e-03h  1
   4  1.4496369e-01 7.14e+01 1.08e+02  -1.0 1.07e+02    -  1.90e-02 2.12e-02f  1
   5  1.7342147e-01 7.06e+01 1.14e+03  -1.0 1.07e+02    -  1.31e-01 1.07e-02h  1
   6  1.0568715e+00 6.45e+01 1.04e+03  -1.0 1.34e+02    -  8.62e-02 8.59e-02h  1
   7  2.8363473e+00 5.64e+01 2.08e+03  -1.0 1.34e+02    -  4.07e-03 1.26e-01h  1
   8  2.8526384e+00 5.63e+01 1.41e+03  -1.0 1.34e+02    -  1.13e-01 1.30e-03h  1
   9  3.8349760e+00 5.41e+01 2.00e+03  -1.0 1.52e+02    -  1.67e-02 3.94e-02h  1
iter    objective    inf_pr   inf_du lg(mu)  ||d||  lg(rg) alpha_du alpha_pr  ls
  10  3.8444918e+00 5.41e+01 3.69e+03  -1.0 1.47e+02    -  7.04e-02 4.17e-04h  1
  11  3.8551185e+00 5.40e+01 8.31e+04  -1.0 1.52e+02    -  2.13e-02 6.30e-04h  1
  12  4.2783936e+00 5.29e+01 2.25e+03  -1.0 1.61e+02    -  2.11e-04 2.14e-02h  1
  13  4.2949328e+00 5.29e+01 2.23e+03  -1.0 5.63e+02    -  2.12e-03 2.50e-04h  1
  14  4.3356368e+00 5.28e+01 2.91e+04  -1.0 5.72e+02    -  1.14e-02 6.15e-04h  1
  15  5.1564664e+00 5.22e+01 2.73e+03  -1.0 5.93e+02    -  2.23e-03 1.24e-02f  1
  16  5.1660227e+00 5.22e+01 1.27e+05  -1.0 5.49e+02    -  4.03e-02 1.60e-04h  1
  17  6.3490971e+00 5.05e+01 3.51e+05  -1.0 3.97e+02    -  7.94e-02 3.27e-02h  1
  18  1.1661480e+01 4.32e+01 5.80e+05  -1.0 4.56e+02    -  2.03e-01 1.42e-01h  1
  19  1.1692669e+01 4.32e+01 8.03e+05  -1.0 4.23e+02    -  5.43e-02 1.46e-03h  1
iter    objective    inf_pr   inf_du lg(mu)  ||d||  lg(rg) alpha_du alpha_pr  ls
  20  1.1714539e+01 4.31e+01 1.22e+06  -1.0 2.43e+02    -  8.52e-02 2.11e-03h  1
  21  1.6233205e+01 2.74e+01 2.91e+05  -1.0 2.35e+02    -  1.46e-01 3.75e-01h  1
  22  1.7097797e+01 2.37e+01 1.53e+05  -1.0 2.25e+02    -  1.93e-01 1.37e-01h  1
  23  1.7534569e+01 2.16e+01 1.14e+05  -1.0 2.65e+02    -  7.61e-02 8.78e-02h  1
  24  1.7564759e+01 2.15e+01 2.49e+05  -1.0 2.60e+02    -  4.65e-02 5.80e-03h  1
  25  2.0005985e+01 1.32e+01 1.64e+06  -1.0 3.03e+02    -  5.93e-02 3.81e-01h  1
  26  2.0303234e+01 1.21e+01 1.04e+06  -1.0 2.12e+02    -  1.41e-01 7.92e-02h  1
  27  2.1706497e+01 7.53e+00 1.75e+06  -1.0 2.47e+02    -  2.24e-01 3.85e-01h  1
  28  2.1710495e+01 7.47e+00 1.39e+05  -1.0 1.16e+02    -  2.18e-01 7.02e-03h  1
  29  2.0002100e+01 4.33e+00 1.24e+06  -1.0 1.19e+02    -  2.23e-01 4.17e-01f  1
iter    objective    inf_pr   inf_du lg(mu)  ||d||  lg(rg) alpha_du alpha_pr  ls
  30  1.9202510e+01 3.29e+00 2.63e+05  -1.0 1.29e+02    -  4.11e-01 2.41e-01f  1
  31  1.7318796e+01 2.76e+00 5.70e+05  -1.0 2.95e+02    -  3.05e-01 4.34e-01f  1
  32  1.5669969e+01 2.20e+00 2.34e+05  -1.0 1.60e+02    -  3.07e-01 2.79e-01h  1
  33  1.3392281e+01 1.03e+00 1.77e+06  -1.0 1.54e+02    -  3.97e-01 6.76e-01h  1
  34  1.2793951e+01 8.14e-01 9.50e+05  -1.0 1.09e+02    -  5.20e-01 2.11e-01f  1
  35  9.9415988e+00 1.80e-01 1.89e+06  -1.0 8.24e+01    -  6.12e-01 1.00e+00f  1
  36  6.3583329e+00 1.37e-01 3.56e+06  -1.0 7.50e+01    -  5.40e-01 1.00e+00f  1
  37  5.0276159e+00 3.63e-02 1.04e+06  -1.0 4.17e+01    -  8.89e-01 1.00e+00f  1
  38  5.0769815e+00 3.29e-02 3.32e-01  -1.0 4.32e+01    -  1.00e+00 1.00e+00f  1
  39  3.2663041e+00 2.47e-01 4.19e+06  -2.5 1.10e+02    -  4.36e-01 7.30e-01f  1
iter    objective    inf_pr   inf_du lg(mu)  ||d||  lg(rg) alpha_du alpha_pr  ls
  40  2.1569823e+00 2.13e-01 6.29e+06  -2.5 7.96e+01    -  6.59e-01 1.00e+00f  1
  41  1.7034096e+00 1.11e-01 1.06e+07  -2.5 6.16e+01    -  4.84e-01 1.00e+00h  1
  42  1.4895930e+00 5.94e-02 3.64e+06  -2.5 4.90e+01    -  8.53e-01 1.00e+00h  1
  43  1.3135266e+00 5.31e-02 3.63e-02  -2.5 3.92e+01    -  1.00e+00 1.00e+00h  1
  44  1.2801588e+00 3.29e-02 1.78e-03  -2.5 1.01e+01    -  1.00e+00 1.00e+00h  1
  45  1.2803022e+00 3.29e-02 3.42e-06  -2.5 5.42e-01    -  1.00e+00 1.00e+00h  1
  46  1.2802934e+00 3.29e-02 2.98e-08  -2.5 7.44e-03    -  1.00e+00 1.00e+00h  1
  47  1.2802934e+00 3.29e-02 2.98e-08  -2.5 1.58e-06    -  1.00e+00 1.00e+00s 22
  48  1.2802934e+00 3.29e-02 3.39e-08  -2.5 2.83e-06    -  1.00e+00 1.00e+00s 22
  49  1.2802934e+00 3.29e-02 3.78e-08  -2.5 2.39e-06    -  1.00e+00 1.00e+00s 22
iter    objective    inf_pr   inf_du lg(mu)  ||d||  lg(rg) alpha_du alpha_pr  ls
  50  1.2802934e+00 3.29e-02 3.25e-08  -2.5 2.04e-06    -  1.00e+00 1.00e+00s 22
  51  1.2802934e+00 3.29e-02 2.98e-08  -2.5 1.76e-06    -  1.00e+00 1.00e+00s 22
  52  1.2802934e+00 3.29e-02 3.85e-08  -2.5 1.54e-06    -  1.00e+00 1.00e+00s 22
  53  1.2802934e+00 3.29e-02 2.98e-08  -2.5 1.35e-06    -  1.00e+00 1.00e+00s 22
  54r 1.2802934e+00 3.29e-02 1.00e+03  -1.5 0.00e+00    -  0.00e+00 0.00e+00R  1
  55r 1.2812987e+00 3.31e-02 9.69e+02  -1.5 1.83e+01    -  2.16e-01 3.09e-02f  1
  56r 1.2868466e+00 3.39e-02 8.78e+02  -1.5 1.58e+01    -  2.82e-03 2.27e-01f  1
  57r 1.3048388e+00 3.41e-02 2.97e+03  -1.5 9.19e+00    -  2.39e-01 1.00e+00f  1
  58r 1.3113030e+00 3.54e-02 2.92e+03  -1.5 1.21e+01    -  4.18e-03 6.80e-02f  1
  59r 1.3101690e+00 3.55e-02 2.80e+03  -1.5 4.12e+00    -  1.82e-01 3.90e-02h  1
iter    objective    inf_pr   inf_du lg(mu)  ||d||  lg(rg) alpha_du alpha_pr  ls
  60r 1.3022806e+00 4.50e-01 1.52e+03  -1.5 2.05e+01    -  1.70e-01 7.91e-01f  1
  61r 1.3016042e+00 4.36e-01 1.50e+03  -1.5 4.19e+01    -  3.74e-03 4.40e-02f  1
  62r 1.3011317e+00 4.32e-01 1.49e+03  -1.5 1.19e+01    -  5.42e-01 7.09e-03h  1
  63r 1.2955441e+00 3.83e-01 1.32e+03  -1.5 8.83e+00    -  2.69e-02 1.16e-01f  1
  64r 1.2867751e+00 1.77e-01 5.32e+02  -1.5 6.71e+00    -  9.20e-01 5.97e-01h  1
  65r 1.2992158e+00 4.15e-02 3.80e+02  -1.5 5.21e+00    -  1.24e-01 1.00e+00h  1
  66r 1.2925414e+00 4.29e-02 3.50e+01  -1.5 3.27e+00    -  6.21e-01 1.00e+00f  1
  67r 1.2937820e+00 4.34e-02 3.82e-03  -1.5 3.06e-01    -  1.00e+00 1.00e+00h  1
  68r 1.2874816e+00 5.59e-02 2.12e+01  -3.3 7.77e+00    -  5.99e-01 9.51e-01f  1
  69r 1.2804970e+00 4.15e-02 1.45e+01  -3.3 2.42e+00    -  8.70e-01 1.00e+00f  1
iter    objective    inf_pr   inf_du lg(mu)  ||d||  lg(rg) alpha_du alpha_pr  ls
  70r 1.2805673e+00 4.19e-02 1.91e+00  -3.3 2.09e+00    -  8.84e-01 1.00e+00h  1
  71r 1.2811804e+00 4.29e-02 1.11e-03  -3.3 1.06e+00    -  1.00e+00 1.00e+00h  1
  72r 1.2799160e+00 4.22e-02 3.18e-01  -5.0 1.62e+00    -  8.37e-01 1.00e+00f  1
  73r 1.2882822e+00 1.14e-01 1.77e+00  -5.0 2.99e+01    -  8.96e-02 2.96e-01f  1
  74r 1.2885096e+00 1.13e-01 1.58e+00  -5.0 2.74e+01    -  2.15e-01 6.61e-03h  1
  75r 1.3562640e+00 1.27e-01 1.71e+00  -5.0 2.06e+01    -  5.17e-01 6.18e-01f  1
  76r 1.3912296e+00 8.49e-02 2.58e+00  -5.0 9.18e+00    -  4.52e-02 5.95e-01h  1
  77r 1.4001171e+00 5.00e-02 2.83e-01  -5.0 6.16e+00    -  1.00e+00 8.01e-01h  1
  78r 1.4027551e+00 4.61e-02 2.12e-04  -5.0 1.27e+00    -  1.00e+00 1.00e+00f  1
  79r 1.4030143e+00 4.61e-02 1.49e-07  -5.0 1.82e-01    -  1.00e+00 1.00e+00h  1
iter    objective    inf_pr   inf_du lg(mu)  ||d||  lg(rg) alpha_du alpha_pr  ls
  80r 1.4028129e+00 4.61e-02 2.41e-03  -7.5 4.56e-01    -  9.93e-01 1.00e+00f  1
  81r 1.4186585e+00 4.61e-02 9.84e-02  -7.5 1.75e+03    -  6.36e-03 4.74e-03f  1
  82r 1.4187114e+00 4.61e-02 3.12e-01  -7.5 1.33e+03    -  7.13e-03 1.59e-05h 10
  83r 1.4513783e+00 4.61e-02 9.75e-01  -7.5 4.56e+02    -  9.57e-02 6.60e-03h  1
  84r 1.5593208e+00 4.61e-02 1.38e+00  -7.5 3.64e+02    -  8.47e-02 1.91e-02f  1
  85r 1.7541932e+00 4.61e-02 2.44e+00  -7.5 3.63e+02    -  2.09e-01 2.81e-02f  1
  86r 1.9715797e+00 4.90e-02 2.44e+00  -7.5 3.37e+02    -  3.92e-02 2.64e-02h  1
  87r 3.6968033e+00 5.83e-01 3.87e+00  -7.5 3.18e+02    -  5.44e-01 1.41e-01f  1
  88r 4.1847212e+00 6.08e-01 4.03e+00  -7.5 2.15e+02    -  2.66e-01 3.90e-02h  1
  89r 4.2633286e+00 6.05e-01 4.42e+00  -7.5 1.93e+02    -  1.00e+00 7.71e-03h  1
iter    objective    inf_pr   inf_du lg(mu)  ||d||  lg(rg) alpha_du alpha_pr  ls
  90r 5.5268319e+00 1.08e+00 3.87e+00  -7.5 1.95e+02    -  1.67e-01 1.22e-01h  1
  91r 5.8057628e+00 1.07e+00 3.56e+00  -7.5 1.77e+02    -  1.00e+00 3.20e-02h  1
  92r 6.8958286e+00 1.26e+00 3.17e+00  -7.5 1.80e+02    -  3.69e-01 1.21e-01h  1
  93r 7.5938609e+00 1.29e+00 2.93e+00  -7.5 1.61e+02    -  1.00e+00 9.04e-02h  1
  94r 8.3750222e+00 1.17e+00 2.84e+00  -7.5 1.31e+02    -  8.65e-01 1.19e-01h  1
  95r 8.9168959e+00 1.08e+00 2.52e+00  -7.5 1.00e+02    -  1.00e+00 9.83e-02h  1
  96r 1.0307250e+01 8.98e-01 1.77e+00  -7.5 9.30e+01    -  1.00e+00 2.80e-01h  1
  97r 1.0790146e+01 7.99e-01 1.64e+00  -7.5 7.38e+01    -  1.00e+00 1.33e-01h  1
  98r 1.0721656e+01 7.44e-01 4.80e+00  -7.5 3.01e+01    -  2.57e-01 6.94e-02h  1
  99r 1.0475851e+01 5.49e-01 6.73e+00  -7.5 2.80e+01    -  4.31e-01 2.62e-01h  1
iter    objective    inf_pr   inf_du lg(mu)  ||d||  lg(rg) alpha_du alpha_pr  ls
 100r 9.7794016e+00 4.55e-02 5.00e+00  -7.5 2.06e+01    -  5.50e-01 1.00e+00h  1
 101r 9.7026820e+00 4.55e-02 3.22e+00  -7.5 2.19e+00    -  3.98e-01 1.00e+00h  1
 102r 9.6650516e+00 4.55e-02 4.26e-07  -7.5 9.32e-02    -  1.00e+00 1.00e+00h  1
 103r 9.6669436e+00 4.55e-02 5.36e-04  -9.0 8.29e-03    -  1.00e+00 1.00e+00h  1
 104r 9.6669413e+00 4.55e-02 1.63e+01  -9.0 5.72e-05  -4.0 1.00e+00 6.17e-01h  1
 105r 9.6667852e+00 4.55e-02 6.18e-07  -9.0 1.34e-03    -  1.00e+00 1.00e+00f  1

Number of Iterations....: 105

                                   (scaled)                 (unscaled)
Objective...............:   9.6667903684713945e+00    9.6667903684713945e+00
Dual infeasibility......:   1.9811167474368546e+01    1.9811167474368546e+01
Constraint violation....:   4.5505274763687535e-02    4.5505274763687535e-02
Complementarity.........:   9.0909094942425552e-10    9.0909094942425552e-10
Overall NLP error.......:   1.9811167474368546e+01    1.9811167474368546e+01


Number of objective function evaluations             = 139
Number of objective gradient evaluations             = 56
Number of equality constraint evaluations            = 139
Number of inequality constraint evaluations          = 139
Number of equality constraint Jacobian evaluations   = 108
Number of inequality constraint Jacobian evaluations = 108
Number of Lagrangian Hessian evaluations             = 106
Total CPU secs in IPOPT (w/o function evaluations)   =      2.056
Total CPU secs in NLP function evaluations           =      0.067

EXIT: Converged to a point of local infeasibility. Problem may be infeasible.
      solver  :   t_proc      (avg)   t_wall      (avg)    n_eval
       nlp_f  |   1.08ms (  7.76us)   1.01ms (  7.26us)       139
       nlp_g  |  22.97ms (165.27us)  21.90ms (157.56us)       139
    nlp_grad  | 423.00us (423.00us) 422.98us (422.98us)         1
  nlp_grad_f  | 807.00us ( 14.16us) 686.75us ( 12.05us)        57
  nlp_hess_l  |   4.99ms ( 47.55us)   4.70ms ( 44.79us)       105
   nlp_jac_g  |  33.04ms (303.15us)  30.39ms (278.79us)       109
       total  |   2.25 s (  2.25 s)   2.00 s (  2.00 s)         1
Fail at Round  1
Total Program Time:  2.2477
Accumulated Acc Cost is:  0.1903
Accumulated Momentum Cost is:  0.0
Accumulated Momentum Rate Cost is:  0.0
Total Cost is:  3720.8677
Terminal Cost is:  3720.8677
Terminal X position is:  0.7121
Terminal Y position is:  0.015
Terminal Z position is:  0.7752
